outputs/case_320.model.txt
capital_adequacy_ratio = 40
days_after_deadline = 0
capital_increase_completed = False
net_worth_ratio_prev = -10
merger_completed = False
net_worth_ratio = -10
profit_loss_accelerated_deterioration = False
net_worth = -1000000
financial_improvement_plan_completed = False
improvement_plan_executed = False
business_improvement_plan_completed = False
improvement_plan_submitted = False
capital_significantly_insufficient_plan_executed = False
capital_insufficient_plan_executed = False
penalty = False
capital_significantly_insufficient_penalty_condition = False
capital_insufficient_plan_submitted = False
capital_severely_insufficient_penalty_condition = False
capital_level = 4
capital_significantly_insufficient_plan_submitted = False
capital_significantly_worsened_condition = False
capital_severely_insufficient_plan_completed = False